decision_x1=[0,2];
decision_x2=[0,2];
decision_x3=[0,2];
decision_x4=[0,2];
decision_x5=[0,2];
decision_x6=[0,2];
decision_x7=[0,2];
decision_x8=[0,2];
random_y1=[0,2];
random_y2=[0,2];
constraint_x3_x1=[
0,0,1.9|
0,1,7.5|
0,2,3.5|
1,0,0.34|
1,1,9.7|
1,2,4.2|
2,0,7.9|
2,1,9.4|
2,2,6.1|
];
constraint_x4_x2=[
0,0,6.9|
0,1,4|
0,2,9.7|
1,0,0.32|
1,1,3.6|
1,2,4.8|
2,0,8.3|
2,1,3.1|
2,2,9.4|
];
constraint_x5_x4=[
0,0,0.2|
0,1,6.3|
0,2,1.4|
1,0,9.3|
1,1,9|
1,2,5|
2,0,1.7|
2,1,9.1|
2,2,0.7|
];
constraint_x6_x3=[
0,0,8.6|
0,1,4.8|
0,2,7.1|
1,0,0.13|
1,1,8.3|
1,2,6.6|
2,0,8|
2,1,9|
2,2,0.077|
];
constraint_x6_x4=[
0,0,6.5|
0,1,7|
0,2,3.9|
1,0,3.3|
1,1,2.5|
1,2,5.3|
2,0,2.5|
2,1,2.4|
2,2,0.56|
];
constraint_x6_x5=[
0,0,9|
0,1,2.8|
0,2,10|
1,0,4.4|
1,1,1.9|
1,2,3.7|
2,0,6.8|
2,1,1.6|
2,2,4.1|
];
constraint_x7_x2=[
0,0,7|
0,1,0.22|
0,2,7.2|
1,0,7.5|
1,1,9.3|
1,2,3.3|
2,0,9.3|
2,1,9.1|
2,2,9.6|
];
constraint_x7_x3=[
0,0,1.7|
0,1,7.7|
0,2,7.6|
1,0,9.9|
1,1,0.46|
1,2,4.8|
2,0,0.072|
2,1,6.8|
2,2,3.7|
];
constraint_x7_x5=[
0,0,2.1|
0,1,6.6|
0,2,2.6|
1,0,2.1|
1,1,5.1|
1,2,9.1|
2,0,1.3|
2,1,2|
2,2,4.4|
];
constraint_x8_x2=[
0,0,8.6|
0,1,0.2|
0,2,9.3|
1,0,6.2|
1,1,7.2|
1,2,1.2|
2,0,8.2|
2,1,0.11|
2,2,3|
];
constraint_x8_x3=[
0,0,2.2|
0,1,1.9|
0,2,10|
1,0,5.8|
1,1,1.1|
1,2,3.7|
2,0,6.6|
2,1,0.91|
2,2,9.8|
];
constraint_x8_x4=[
0,0,6.6|
0,1,4.9|
0,2,2.3|
1,0,9.6|
1,1,0.063|
1,2,3.5|
2,0,0.46|
2,1,9.9|
2,2,10|
];
constraint_x8_x6=[
0,0,0.32|
0,1,7.1|
0,2,9|
1,0,0.4|
1,1,0.9|
1,2,3.4|
2,0,6.5|
2,1,0.54|
2,2,3.4|
];
constraint_x8_x7=[
0,0,8.2|
0,1,8.9|
0,2,5.1|
1,0,9.4|
1,1,8.6|
1,2,5.4|
2,0,3.5|
2,1,4.2|
2,2,0.42|
];
constraint_x1_y1=[
0,0,0.31|
0,1,0.27|
0,2,1.1|
1,0,1.1|
1,1,2.6|
1,2,9.5|
2,0,1.4|
2,1,6.8|
2,2,4|
];
constraint_x2_y2=[
0,0,3.8|
0,1,2.6|
0,2,0.88|
1,0,5.8|
1,1,4.4|
1,2,8.5|
2,0,5.8|
2,1,7|
2,2,4.2|
];
initial_distribution_y1=[0.14,0.19,0.67];
initial_distribution_y2=[0.23,0.61,0.16];
transition_y1=[
0.092,0.48,0.43|
0.31,0.11,0.58|
0.51,0.088,0.4|
];
transition_y2=[
0.15,0.57,0.28|
0.22,0.051,0.72|
0.33,0.33,0.34|
];
